CAPACITY = 4;
N_TASKS = 20;
d = [ 2, 5, 3, 1, 3, 5, 4, 1, 2, 1, 4, 5, 3, 4, 3, 4, 3, 1, 1, 2 ];
rr = [ 1, 1, 3, 2, 1, 1, 2, 1, 1, 1, 2, 3, 1, 1, 1, 1, 3, 1, 1, 1 ];
suc = [ {  },
       { 20 },
       { 11, 13 },
       {  },
       {  },
       { 13, 17 },
       { 11 },
       { 11, 20 },
       {  },
       { 20 },
       { 13, 15, 18 },
       { 14 },
       { 17 },
       {  },
       {  },
       { 17 },
       {  },
       {  },
       {  },
       {  } ];
